Normalized Data/p01_21_normalized_splitx10_0.vrp
NAME:p01_21_NORMALIZED_splitx10_
BEST_KNOWN: 0
COMMENT: 0
DIMENSION: 186
CAPACITY: 1000
EDGE_WEIGHT_FORMAT: FUNCTION
EDGE_WEIGHT_TYPE: EXACT_2D
NODE_COORD_SECTION
1 0.00000 0.00000
2 -32 -31
3 -32 -31
4 -6 -48
5 -6 -48
6 -6 -48
7 -6 -48
8 -46 -41
9 -46 -41
10 -46 -41
11 -46 -41
12 -46 -41
13 -46 -41
14 -46 -41
15 35 23
16 35 23
17 35 23
18 35 23
19 33 47
20 33 47
21 -9 17
22 -9 17
23 -9 17
24 -9 17
25 -9 17
26 -17 9
27 -17 9
28 -17 9
29 -17 9
30 -17 9
31 -17 9
32 -17 9
33 -37 5
34 -37 5
35 27 35
36 27 35
37 27 35
38 27 35
39 27 35
40 49 49
41 49 49
42 49 49
43 49 49
44 -39 39
45 -39 39
46 -39 39
47 -39 39
48 50 13
49 50 13
50 -33 -14
51 -33 -14
52 -33 -14
53 -14 -4
54 -14 -4
55 -15 11
56 -15 11
57 -15 11
58 29 28
59 29 28
60 29 28
61 -16 24
62 44 -47
63 44 -47
64 44 -47
65 -13 -39
66 -13 -39
67 41 -47
68 41 -47
69 12 3
70 12 3
71 12 3
72 -5 -7
73 -5 -7
74 -5 -7
75 -5 -7
76 -5 -7
77 6 -12
78 6 -12
79 6 -12
80 4 -38
81 4 -38
82 4 -38
83 4 -38
84 4 -38
85 -40 -43
86 -40 -43
87 -40 -43
88 50 -32
89 50 -32
90 50 -32
91 -29 36
92 -29 36
93 -29 36
94 -29 36
95 -29 36
96 -31 -46
97 -31 -46
98 32 -22
99 32 -22
100 32 -22
101 31 -50
102 31 -50
103 6 29
104 6 29
105 -8 -3
106 -8 -3
107 -8 -3
108 -8 -3
109 -8 -3
110 -3 -30
111 -3 -30
112 -3 -30
113 -3 -30
114 34 15
115 34 15
116 34 15
117 12 -33
118 12 -33
119 12 -33
120 12 -33
121 12 -33
122 12 -33
123 37 -1
124 37 -1
125 37 -1
126 37 -1
127 37 -1
128 -7 32
129 -7 32
130 -27 -27
131 -27 -27
132 -27 -27
133 -27 -27
134 -27 -27
135 21 8
136 21 8
137 21 8
138 21 8
139 -47 2
140 -47 2
141 -47 2
142 -47 2
143 -12 21
144 -12 21
145 -12 21
146 -12 21
147 -12 21
148 32 -44
149 32 -44
150 32 -44
151 32 -44
152 13 33
153 13 33
154 13 33
155 13 33
156 9 -43
157 9 -43
158 9 -43
159 9 -43
160 9 -43
161 9 -43
162 17 -2
163 17 -2
164 17 -2
165 17 -2
166 -23 -15
167 -23 -15
168 -23 -15
169 -23 -15
170 -23 -15
171 -3 -18
172 8 -8
173 8 -8
174 8 -8
175 8 -8
176 8 -8
177 8 -8
178 8 -8
179 -36 -23
180 -36 -23
181 -36 -23
182 -36 -23
183 -36 -23
184 -36 -23
185 8 -49
186 8 -49
DEMAND_SECTION
1 0
2 200
3 10
4 200
5 10
6 10
7 10
8 200
9 100
10 50
11 10
12 10
13 10
14 10
15 100
16 10
17 10
18 10
19 200
20 200
21 200
22 10
23 10
24 10
25 10
26 200
27 200
28 50
29 10
30 10
31 10
32 10
33 200
34 10
35 100
36 10
37 10
38 10
39 10
40 100
41 10
42 10
43 10
44 100
45 50
46 10
47 10
48 200
49 10
50 200
51 100
52 50
53 200
54 200
55 200
56 10
57 10
58 200
59 200
60 100
61 200
62 200
63 100
64 50
65 200
66 50
67 200
68 50
69 200
70 200
71 10
72 200
73 200
74 10
75 10
76 10
77 200
78 100
79 50
80 100
81 50
82 10
83 10
84 10
85 100
86 50
87 10
88 200
89 50
90 10
91 200
92 200
93 10
94 10
95 10
96 200
97 50
98 200
99 200
100 10
101 200
102 200
103 200
104 50
105 200
106 50
107 10
108 10
109 10
110 100
111 10
112 10
113 10
114 200
115 10
116 10
117 200
118 100
119 10
120 10
121 10
122 10
123 200
124 100
125 10
126 10
127 10
128 200
129 10
130 200
131 200
132 10
133 10
134 10
135 200
136 200
137 50
138 10
139 100
140 10
141 10
142 10
143 100
144 50
145 10
146 10
147 10
148 200
149 100
150 10
151 10
152 200
153 200
154 50
155 10
156 200
157 100
158 50
159 10
160 10
161 10
162 100
163 10
164 10
165 10
166 200
167 200
168 50
169 10
170 10
171 200
172 200
173 100
174 50
175 10
176 10
177 10
178 10
179 200
180 200
181 50
182 10
183 10
184 10
185 200
186 10
DEPOT_SECTION
1
-1
EOF