Normalized Data/p01_21_normalized_splitx10_0.sol
185 -1 11 7 13 9 8 10 12 85 86 84 96 95 -17 15 41 40 42 39 19 18 37 36 35 38 34 103 102 -22 23 20 21 24 60 54 56 55 29 25 31 30 28 27 -26 33 32 140 139 141 138 50 49 51 -59 58 57 154 153 151 152 -63 61 62 66 67 100 101 -70 69 68 137 134 136 135 -74 73 75 72 71 104 -76 77 78 173 176 172 171 175 174 177 -80 81 83 82 79 3 5 4 6 65 64 109 110 112 111 170 -98 99 97 89 87 88 150 147 148 149 -108 105 107 106 52 53 165 166 167 169 168 -115 113 114 14 16 48 47 123 125 124 126 122 162 164 161 163 -116 118 120 121 119 117 155 157 158 160 159 156 185 184 -127 128 93 92 91 90 94 45 46 44 43 146 144 142 143 145 -129 130 133 131 132 2 181 179 180 178 183 182 0 





OBJ=
1520.991
BEST_KNOWN=
0.000